10
-1 26 66 9 44 13 61 89 25 66
10 -1 97 73 16 88 85 36 26 9
24 46 -1 27 48 49 58 47 17 82
53 16 39 -1 62 64 39 25 30 2
72 31 3 92 -1 5 89 23 59 4
78 74 25 96 44 -1 68 72 66 27
93 54 23 4 24 76 -1 33 11 96
43 78 50 27 98 99 36 -1 98 56
26 10 73 35 26 47 81 1 -1 99
15 20 34 21 86 21 33 66 61 -1
